Route #1: 26 7 35 8 46 34 52
Route #2: 27 13 54 19 59 14
Route #3: 53 11 38 10 58
Route #4: 39 31 55 18 24 49 56 23
Route #5: 63 16 3 44 50 25 9
Route #6: 32 40 12 17 51 6
Route #7: 33 1 43 41 42 64 22
Route #8: 61 36 60 20 37 15 57 5
Route #9: 47 21 28 62 2
Route #10: 30 48 29 45 4
Cost 861